Route #1: 1 1 40 39 38 37 36 35 34 33 32 31 30 29 28 27 26 25 24 23 22 21 20 19 18 17 16 15 13 12 1 
Route #2: 1 2 3 4 5 6 7 8 9 10 11 14 54 53 52 51 50 49 48 47 46 45 44 43 42 41 80 77 1 
Route #3: 1 79 78 76 75 74 73 72 71 70 69 68 67 66 65 64 63 62 61 60 59 58 97 96 95 55 56 57 1 
Route #4: 1 81 82 83 84 85 86 87 88 89 90 91 92 93 94 134 135 136 137 138 139 140 141 142 143 144 145 146 1 
Route #5: 1 120 119 118 117 116 115 114 113 112 111 110 109 108 107 106 105 104 103 102 101 100 99 98 178 177 176 175 1 
Route #6: 1 121 122 123 124 165 164 203 204 205 206 207 208 209 210 211 212 213 214 174 173 133 132 131 130 129 128 127 126 125 1 
Route #7: 1 160 199 198 197 196 195 194 193 192 191 190 189 188 187 147 148 149 150 151 152 153 154 155 156 157 158 159 1 
Route #8: 1 161 200 240 239 238 237 236 235 234 233 232 231 230 229 228 227 226 225 224 223 222 221 220 219 218 217 216 215 172 1 
Route #9: 1 201 202 162 163 166 167 168 169 170 171 179 180 181 182 183 184 185 186 1 

Cost 5910.86
Time 0.2428


 * Other infos *

 Iterations: 241 Time: 0.2428 sec - 0.0040 min - 0.0001 horas
0.0000 h 0.0040 min
Problem dimension: 241
